s = array1d(1..400, [0, 0, 5, 0, 0, 2, 7, 4, 14, 0, 0, 8, 0, 0, 0, 0, 16, 10, 15, 0, 5, 6, 19, 0, 10, 16, 0, 0, 0, 17, 7, 0, 0, 0, 0, 3, 15, 0, 9, 0, 17, 0, 2, 7, 19, 0, 14, 15, 0, 0, 1, 0, 18, 0, 8, 10, 0, 0, 4, 0, 0, 12, 0, 14, 16, 0, 0, 0, 6, 0, 18, 13, 0, 11, 3, 17, 0, 5, 7, 0, 15, 0, 0, 0, 0, 17, 0, 0, 0, 2, 3, 0, 7, 5, 11, 12, 0, 14, 0, 16, 3, 19, 13, 15, 0, 6, 4, 14, 0, 0, 0, 7, 8, 10, 0, 0, 0, 0, 0, 0, 16, 0, 0, 11, 2, 9, 0, 0, 0, 0, 8, 1, 0, 0, 0, 14, 0, 18, 3, 5, 0, 0, 17, 18, 0, 0, 11, 16, 0, 0, 14, 3, 0, 1, 5, 0, 4, 13, 0, 6, 0, 7, 16, 10, 0, 18, 0, 12, 5, 15, 4, 0, 19, 0, 0, 0, 0, 0, 17, 9, 8, 15, 3, 0, 5, 0, 13, 0, 12, 0, 11, 0, 0, 4, 0, 19, 0, 0, 0, 0, 2, 0, 6, 0, 0, 0, 10, 0, 15, 13, 9, 17, 0, 18, 0, 4, 1, 0, 0, 3, 0, 0, 15, 1, 3, 0, 0, 0, 19, 0, 0, 0, 16, 14, 0, 13, 11, 2, 0, 17, 0, 17, 0, 0, 0, 15, 9, 6, 0, 18, 13, 10, 14, 0, 19, 0, 0, 11, 8, 0, 0, 0, 0, 0, 7, 0, 3, 2, 18, 0, 0, 19, 0, 8, 0, 0, 17, 6, 0, 4, 0, 16, 0, 0, 8, 0, 0, 3, 0, 7, 10, 18, 5, 0, 0, 0, 9, 1, 0, 19, 1, 13, 12, 17, 0, 7, 0, 0, 0, 3, 0, 0, 0, 0, 10, 15, 8, 0, 11, 0, 0, 0, 0, 0, 0, 14, 17, 0, 10, 9, 0, 6, 3, 0, 18, 0, 0, 4, 2, 15, 0, 0, 0, 16, 0, 0, 1, 18, 7, 8, 0, 0, 4, 0, 2, 6, 19, 15, 0, 0, 18, 3, 0, 0, 15, 0, 8, 0, 0, 4, 0, 16, 0, 7, 6, 1, 5, 0, 0, 14, 12, 14, 0, 0, 4, 3, 0, 0, 0, 0, 0, 0, 13, 19, 16, 0, 2, 0, 6, 0]);
n = 20;
